certificates/rado_a11_c204_N37.cnf
c Rad2 upper bound instance: x1 + 11*x2 - x3 = 204, interval [1,37]
p cnf 37 244
1 6 19 0
-1 -6 -19 0
1 17 20 0
-1 -17 -20 0
1 21 28 0
-1 -21 -28 0
2 7 19 0
-2 -7 -19 0
2 18 20 0
-2 -18 -20 0
2 21 29 0
-2 -21 -29 0
3 8 19 0
-3 -8 -19 0
3 19 20 0
-3 -19 -20 0
3 21 30 0
-3 -21 -30 0
4 9 19 0
-4 -9 -19 0
4 20 0
-4 -20 0
4 21 31 0
-4 -21 -31 0
5 10 19 0
-5 -10 -19 0
5 20 21 0
-5 -20 -21 0
5 21 32 0
-5 -21 -32 0
6 11 19 0
-6 -11 -19 0
6 20 22 0
-6 -20 -22 0
6 21 33 0
-6 -21 -33 0
1 7 18 0
-1 -7 -18 0
7 12 19 0
-7 -12 -19 0
7 20 23 0
-7 -20 -23 0
7 21 34 0
-7 -21 -34 0
2 8 18 0
-2 -8 -18 0
8 13 19 0
-8 -13 -19 0
8 20 24 0
-8 -20 -24 0
8 21 35 0
-8 -21 -35 0
3 9 18 0
-3 -9 -18 0
9 14 19 0
-9 -14 -19 0
9 20 25 0
-9 -20 -25 0
9 21 36 0
-9 -21 -36 0
4 10 18 0
-4 -10 -18 0
10 15 19 0
-10 -15 -19 0
10 20 26 0
-10 -20 -26 0
10 21 37 0
-10 -21 -37 0
5 11 18 0
-5 -11 -18 0
11 16 19 0
-11 -16 -19 0
11 20 27 0
-11 -20 -27 0
6 12 18 0
-6 -12 -18 0
12 17 19 0
-12 -17 -19 0
12 20 28 0
-12 -20 -28 0
7 13 18 0
-7 -13 -18 0
13 18 19 0
-13 -18 -19 0
13 20 29 0
-13 -20 -29 0
8 14 18 0
-8 -14 -18 0
14 19 0
-14 -19 0
14 20 30 0
-14 -20 -30 0
9 15 18 0
-9 -15 -18 0
15 19 20 0
-15 -19 -20 0
15 20 31 0
-15 -20 -31 0
10 16 18 0
-10 -16 -18 0
16 19 21 0
-16 -19 -21 0
16 20 32 0
-16 -20 -32 0
11 17 18 0
-11 -17 -18 0
17 19 22 0
-17 -19 -22 0
17 20 33 0
-17 -20 -33 0
1 17 18 0
-1 -17 -18 0
12 18 0
-12 -18 0
18 19 23 0
-18 -19 -23 0
18 20 34 0
-18 -20 -34 0
2 17 19 0
-2 -17 -19 0
19 24 0
-19 -24 0
19 20 35 0
-19 -20 -35 0
3 17 20 0
-3 -17 -20 0
14 18 20 0
-14 -18 -20 0
19 20 25 0
-19 -20 -25 0
20 36 0
-20 -36 0
4 17 21 0
-4 -17 -21 0
15 18 21 0
-15 -18 -21 0
19 21 26 0
-19 -21 -26 0
20 21 37 0
-20 -21 -37 0
5 17 22 0
-5 -17 -22 0
16 18 22 0
-16 -18 -22 0
19 22 27 0
-19 -22 -27 0
6 17 23 0
-6 -17 -23 0
17 18 23 0
-17 -18 -23 0
19 23 28 0
-19 -23 -28 0
7 17 24 0
-7 -17 -24 0
18 24 0
-18 -24 0
19 24 29 0
-19 -24 -29 0
8 17 25 0
-8 -17 -25 0
18 19 25 0
-18 -19 -25 0
19 25 30 0
-19 -25 -30 0
9 17 26 0
-9 -17 -26 0
18 20 26 0
-18 -20 -26 0
19 26 31 0
-19 -26 -31 0
10 17 27 0
-10 -17 -27 0
18 21 27 0
-18 -21 -27 0
19 27 32 0
-19 -27 -32 0
11 17 28 0
-11 -17 -28 0
18 22 28 0
-18 -22 -28 0
19 28 33 0
-19 -28 -33 0
1 16 29 0
-1 -16 -29 0
12 17 29 0
-12 -17 -29 0
18 23 29 0
-18 -23 -29 0
19 29 34 0
-19 -29 -34 0
2 16 30 0
-2 -16 -30 0
13 17 30 0
-13 -17 -30 0
18 24 30 0
-18 -24 -30 0
19 30 35 0
-19 -30 -35 0
3 16 31 0
-3 -16 -31 0
14 17 31 0
-14 -17 -31 0
18 25 31 0
-18 -25 -31 0
19 31 36 0
-19 -31 -36 0
4 16 32 0
-4 -16 -32 0
15 17 32 0
-15 -17 -32 0
18 26 32 0
-18 -26 -32 0
19 32 37 0
-19 -32 -37 0
5 16 33 0
-5 -16 -33 0
16 17 33 0
-16 -17 -33 0
18 27 33 0
-18 -27 -33 0
6 16 34 0
-6 -16 -34 0
17 34 0
-17 -34 0
18 28 34 0
-18 -28 -34 0
7 16 35 0
-7 -16 -35 0
17 18 35 0
-17 -18 -35 0
18 29 35 0
-18 -29 -35 0
8 16 36 0
-8 -16 -36 0
17 19 36 0
-17 -19 -36 0
18 30 36 0
-18 -30 -36 0
9 16 37 0
-9 -16 -37 0
17 20 37 0
-17 -20 -37 0
18 31 37 0
-18 -31 -37 0
