certificates/rado_a11_c204_N37.drat
-32 -4 -37 0
17 20 -37 0
-36 -37 0
-37 0
21 0
-16 -20 0
d -16 -32 -20 0
-20 0
4 0
36 0
17 0
-31 0
0
